
<<< setup

Version identifier: 22.1.1.0 | 2022-11-27 | 9160aff4d
Tried aggregator 1 time.
LP Presolve eliminated 1562 rows and 1529 columns.
Aggregator did 1 substitutions.
Reduced LP has 7 rows, 16 columns, and 23 nonzeros.
Presolve time = 0.00 sec. (2.32 ticks)

Iteration log . . .
Iteration:     1   Dual infeasibility =            29.578600
Iteration:    14   Dual objective     =           180.089412
main returns 0

<<< main


<<< done

